Route #1: 15 28 51
Route #2: 20 40 61 29 43 8 10 7
Route #3: 6 32 57 50 17 58 33 34
Route #4: 56 25 49 35 26 55 59
Route #5: 31 11 4 21 41 23 27 39 3 54 9 60 5 14
Route #6: 53 48 12 13 18 1 30 19 38
Route #7: 45 47 24 42 46
Route #8: 52 2 44 22 37 16 36
Cost 1290
Time 0.124028
